10J3M/DAT/10J3MULA-15.dat
10 3
5.5122 30.3843
32.7465 1072.3333
37.2777 1389.6269
7.2764 52.946
46.6379 2175.0937
44.1957 1953.2599
1.1294 1.2755
34.3929 1182.8716
16.769 281.1994
40.1006 1608.0581
3249.0162