10J3M/SOL/10J3MULA-15.sol
solution status: optimal solution found
objective value:                      88.679432618607
x#1#1                                               1 	(obj:0)
x#2#2                               0.319160859004222 	(obj:0)
x#2#3                               0.680839140995778 	(obj:0)
x#3#1                               0.172403338351785 	(obj:0)
x#3#2                               0.827596661648215 	(obj:0)
x#4#1                                               1 	(obj:0)
x#5#1                               0.605388164830121 	(obj:0)
x#5#3                               0.394611789194848 	(obj:0)
x#6#2                               0.293789474435333 	(obj:0)
x#6#3                               0.706210525564667 	(obj:0)
x#7#1                                               1 	(obj:0)
x#8#2                                               1 	(obj:0)
x#9#3                                               1 	(obj:0)
x#10#1                                              1 	(obj:0)
z                                     88.679432618607 	(obj:1)
